c colouring generated by benchmark framework
p edge 47 236
v 1 0
v 2 2
v 3 1
v 4 2
v 5 0
v 6 0
v 7 5
v 8 1
v 9 5
v 10 4
v 11 3
v 12 3
v 13 3
v 14 1
v 15 1
v 16 0
v 17 0
v 18 5
v 19 1
v 20 1
v 21 0
v 22 3
v 23 2
v 24 0
v 25 4
v 26 1
v 27 1
v 28 0
v 29 0
v 30 4
v 31 5
v 32 1
v 33 5
v 34 3
v 35 0
v 36 3
v 37 1
v 38 3
v 39 3
v 40 5
v 41 4
v 42 1
v 43 1
v 44 0
v 45 3
v 46 4
v 47 2
